submitit INFO (2023-04-30 13:43:43,423) - Starting with JobEnvironment(job_id=27527, hostname=cpunode2, local_rank=3(5), node=0(1), global_rank=3(5))
submitit INFO (2023-04-30 13:43:43,423) - Loading pickle: /h/30/pashootan/Matrix-Mult-CP/src/../logs/2x2x2_5_Apr30_13:43:39/27527_submitted.pkl
 ! --------------------------------------------------- CP Optimizer 22.1.1.0 --
 ! Satisfiability problem - 60 variables, 164 constraints
 ! TimeLimit            = 7200
 ! Workers              = 8
 ! LogPeriod            = 10000000
 ! RandomSeed           = 646
 ! Initial process time : 0.00s (0.00s extraction + 0.00s propagation)
 !  . Log search space  : 95.1 (before), 95.1 (after)
 !  . Memory usage      : 502.6 kB (before), 502.6 kB (after)
 ! Using parallel search with 8 workers.
 ! ----------------------------------------------------------------------------
 !               Branches  Non-fixed    W       Branch decision
                   10000k          6    5        -1  = V3_3
                   10000k          6    8   F    -1 != V3_0
                   10000k          6    4        -1 != U1_1
                   10000k          6    1   F    -1  = U2_3
                   10000k          8    6        -1 != W2_1
                   10000k          7    3   F    -1  = V2_3
                   10000k          8    7   F    -1  = V3_3
                   10000k          7    2        -1  = V1_2
                   20000k          6    8   F    -1 != W1_2
                   20000k          6    4   F    -1 != V4_3
                   20000k          8    7   F    -1 != W0_2
                   20000k          6    5        -1 != U2_2
                   20000k          8    6   F    -1 != V2_3
                   20000k         10    3   F    -1  = W3_0
                   20000k          7    2   F     1 != V1_2
                   20000k          7    1   F    -1  = U0_3
                   30000k          7    7         0  = V0_1
                   30000k          7    8   F    -1 != V2_1
                   30000k          6    4   F     1  = U1_2
                   30000k          7    5   F     1  = U0_2
 ! Time = 298.02s, Average fail depth = 19, Memory usage = 141.2 MB
 !               Branches  Non-fixed    W       Branch decision
                   30000k          8    6        -1  = V2_0
                   30000k         11    3   F    -1 != W2_1
                   30000k          8    2         0 != U1_3
                   30000k          6    1         0  = V0_2
                   40000k          7    8            -
                   40000k          8    7   F     0  = V2_2
                   40000k         10    3        -1 != U1_0
                   40000k          8    4   F     1  = W2_3
                   40000k          8    6   F     0 != U0_1
                   40000k          7    2         1 != V3_3
                   40000k          8    5        -1  = V0_3
                   40000k          6    1   F     1 != U4_3
                   50000k          7    8        -1 != U1_0
                   50000k          8    7        -1 != V2_1
                   50000k          8    3   F    -1 != U1_1
                   50000k          7    4   F     1 != W3_1
                   50000k          8    2         0  = V0_0
                   50000k          9    5         1 != W2_0
                   50000k          7    6   F     0  = W2_0
                   50000k          6    1   F     1 != V1_3
 ! Time = 502.81s, Average fail depth = 19, Memory usage = 228.0 MB
 !               Branches  Non-fixed    W       Branch decision
                   60000k          7    8        -1 != W1_1
                   60000k          7    4         1  = V4_1
                   60000k          8    7   F     1 != W2_0
                   60000k          7    6   F     0  = U3_1
                   60000k          9    2        -1 != V0_0
                   60000k          9    3   F     0 != V1_1
                   60000k          8    5   F     1 != W2_2
                   60000k          6    1   F     0  = U4_2
                   70000k          7    8         1 != V3_0
                   70000k          7    4   F     0  = U2_3
                   70000k          7    6        -1 != U1_1
                   70000k          8    2         1  = V0_1
                   70000k          8    5         0  = W2_0
                   70000k          8    3   F    -1  = V1_1
                   70000k          7    7   F     0  = V1_1
                   70000k          7    1         1 != W3_2
                   80000k          7    8            -
                   80000k          8    4         0 != W4_1
                   80000k         10    2   F     0  = W0_1
                   80000k          7    6         0 != V2_3
 ! Time = 797.31s, Average fail depth = 19, Memory usage = 349.1 MB
 !               Branches  Non-fixed    W       Branch decision
                   80000k          8    5   F     0 != W3_2
                   80000k          7    7   F    -1 != V2_1
                   80000k         12    3   F     1  = W3_2
                   80000k          7    1   F     1  = U0_3
                   90000k          7    8            -
                   90000k          7    4   F     0  = U4_1
                   90000k          7    2   F     1 != U3_1
                   90000k          8    5         0  = U3_2
                   90000k          7    6         0 != U0_2
                   90000k          8    7         0 != U3_1
                   90000k         10    3   F    -1  = V0_1
                   90000k          6    1         0 != V0_2
                     100M          7    8        -1  = V3_3
                     100M          9    4        -1 != U4_2
                     100M          7    2   F     1 != W4_1
                     100M          8    5        -1 != U2_2
                     100M          8    6         1 != W3_0
                     100M          7    7        -1  = U2_0
                     100M          9    3         0 != V4_2
                     100M          6    1   F     1 != W4_0
 ! Time = 1009.07s, Average fail depth = 19, Memory usage = 439.5 MB
 !               Branches  Non-fixed    W       Branch decision
                     110M          7    8   F        -
                     110M          8    2        -1 != V1_0
                     110M          8    4        -1 != U4_1
                     110M          7    6   F     1 != W0_1
                     110M          8    5         1  = U1_1
                     110M          8    3   F     1  = V3_3
                     110M          8    7   F     0 != W2_0
                     110M          6    1        -1 != V0_2
                     120M          7    8   F     1 != W0_3
                     120M          9    2         0 != V3_1
                     120M          8    4         1  = U0_1
                     120M          7    6        -1  = V1_2
                     120M          7    5         0 != W0_1
                     120M         10    3        -1 != U3_1
                     120M          6    1   F    -1 != W2_1
                     120M         11    7   F    -1 != V4_2
                     130M          7    8   F    -1  = U2_2
                     130M          8    2         0 != W1_1
                     130M          7    4        -1  = U3_1
                     130M          9    5         1 != V4_3
 ! Time = 1297.41s, Average fail depth = 19, Memory usage = 558.9 MB
 !               Branches  Non-fixed    W       Branch decision
                     130M          8    6        -1  = V1_2
                     130M          9    7         1  = U0_2
                     130M          9    3   F     1  = W0_1
                     130M          7    1         0  = U0_2
                     140M          7    8        -1  = W2_1
                     140M          8    2   F     1 != W1_1
                     140M          9    4   F     1  = W0_3
                     140M          7    6         1  = V2_2
                     140M          8    5   F     1  = V2_0
                     140M          8    3   F    -1 != U0_0
                     140M          6    1   F     1  = U0_2
                     140M          8    7   F     1  = W3_0
                     150M          7    8   F    -1 != W0_3
                     150M          8    2   F    -1  = V3_0
                     150M          9    5   F    -1 != W3_0
                     150M          8    6   F     0  = U0_1
                     150M          9    4   F     1 != U4_3
                     150M         12    3   F     0  = U4_0
                     150M          9    7   F     1 != V4_0
                     150M          8    1   F     0 != V0_3
 ! Time = 1507.66s, Average fail depth = 19, Memory usage = 647.5 MB
 !               Branches  Non-fixed    W       Branch decision
                     160M          7    8         1 != V2_0
                     160M          7    2         0  = U2_0
                     160M          8    6   F     0 != W4_0
                     160M          8    4   F     1 != U1_2
                     160M          8    5        -1  = V1_2
                     160M          8    3         1 != U4_3
                     160M          8    7   F     0 != W0_0
                     160M          6    1   F     0  = W1_2
                     170M          6    8        -1  = V4_0
                     170M          7    2   F     0 != V4_3
                     170M          7    3   F     1  = V2_3
                     170M          7    4         0 != U3_1
                     170M          8    6   F    -1  = U2_3
                     170M          9    5   F     0 != W4_0
                     170M         11    7   F     1 != V4_1
                     170M          7    1   F    -1  = W2_3
                     180M          7    8   F        -
                     180M          7    2   F     0  = W1_3
                     180M          7    4   F    -1  = W3_3
                     180M          9    6   F     0 != W0_0
 ! Time = 1797.86s, Average fail depth = 19, Memory usage = 763.5 MB
 !               Branches  Non-fixed    W       Branch decision
                     180M          9    5         0  = V4_3
                     180M          8    3   F     1 != W2_3
                     180M          9    7         0  = W2_0
                     180M          7    1         0  = V0_2
                     190M          7    8   F    -1 != W3_0
                     190M          9    2         0 != V3_0
                     190M          8    4   F     0  = U4_1
                     190M          8    6   F    -1 != W3_0
                     190M          9    7        -1  = W1_1
                     190M          8    5        -1  = W2_0
                     190M          8    3   F    -1  = U2_1
                     190M          7    1   F     0 != V0_3
                     200M          7    8   F     0  = U2_0
                     200M          7    2        -1  = V0_2
                     200M          9    4         0 != V2_1
                     200M          8    6   F     1  = U4_1
                     200M          7    3         1  = V2_0
                     200M          7    5         0  = W0_0
                     200M         11    7   F    -1 != V2_0
                     200M          7    1   F     0  = V4_3
 ! Time = 2013.05s, Average fail depth = 19, Memory usage = 858.7 MB
 !               Branches  Non-fixed    W       Branch decision
                     210M          7    8   F    -1 != V0_3
                     210M         10    2         1 != U2_1
                     210M          8    4   F     1  = W1_0
                     210M          8    5         1 != W2_2
                     210M          9    6   F     1 != W4_2
                     210M          7    7   F    -1 != V0_2
                     210M          8    3   F    -1 != V0_2
                     210M          7    1   F    -1  = U2_1
                     220M          7    8        -1  = V1_1
                     220M          8    2         1  = W3_2
                     220M          9    4        -1  = U0_1
                     220M          8    5   F    -1  = V4_2
                     220M          8    6        -1  = U1_1
                     220M          7    3        -1  = U1_1
                     220M         10    7         0  = W2_0
                     220M          7    1   F    -1 != V0_3
                     230M          7    8   F    -1  = V0_1
                     230M          8    2   F     0  = W3_0
                     230M          7    4         1 != V2_2
                     230M          7    5         0  = U3_1
 ! Time = 2294.13s, Average fail depth = 19, Memory usage = 972.9 MB
 !               Branches  Non-fixed    W       Branch decision
                     230M          8    6   F     1 != W0_2
                     230M          9    3         1  = W0_3
                     230M          7    7        -1  = U4_1
                     230M          7    1   F     1  = V1_1
                     240M          7    8        -1 != W1_2
                     240M          8    2   F    -1  = V3_2
                     240M          8    4        -1  = W1_3
                     240M          8    6        -1 != U1_2
                     240M          7    5   F     1 != W4_2
                     240M          9    7   F    -1 != U3_0
                     240M          7    3        -1  = V1_1
                     240M          8    1   F     0 != U4_1
                     250M          7    8   F     0  = V0_3
                     250M          8    2        -1 != W2_2
                     250M          9    4   F     0  = W1_3
                     250M          8    5         0 != U0_1
                     250M          8    6   F     1 != V0_2
                     250M          8    7        -1  = W1_1
                     250M          8    3   F     0  = W4_1
                     250M          7    1         0 != V2_1
 ! Time = 2515.18s, Average fail depth = 19, Memory usage = 1.1 GB
 !               Branches  Non-fixed    W       Branch decision
                     260M          7    8   F    -1  = W2_2
                     260M          8    2         1 != U0_2
                     260M          8    4   F    -1  = W2_2
                     260M          8    5         0  = V3_3
                     260M          8    6   F     0 != V2_0
                     260M          9    3   F    -1  = W0_0
                     260M          8    7   F     0 != V2_1
                     260M          7    1         1 != U4_2
                     270M          7    8   F    -1  = W2_3
                     270M          8    2        -1  = U3_1
                     270M          7    4   F     1 != W4_2
                     270M          8    6         0 != W2_0
                     270M          8    5        -1  = U0_2
                     270M          7    7   F    -1 != U1_1
                     270M         10    3        -1 != W0_1
                     270M          8    1   F     1 != W4_0
                     280M          7    8            -
                     280M          7    2        -1  = V1_0
                     280M          8    6        -1  = W1_0
                     280M          9    4        -1 != V3_2
 ! Time = 2792.54s, Average fail depth = 19, Memory usage = 1.2 GB
 !               Branches  Non-fixed    W       Branch decision
                     280M          8    5   F    -1  = V3_3
                     280M          7    7         0  = W3_2
                     280M          7    3        -1 != W3_3
                     280M          6    1        -1 != V4_3
                     290M          7    8   F    -1 != W0_0
                     290M          9    6   F     0  = V3_2
                     290M          6    2         1 != U2_3
                     290M          9    4   F     0  = W3_0
                     290M          7    5         0 != W4_3
                     290M          6    3   F    -1 != U3_0
                     290M          8    7   F    -1  = V2_0
                     290M          7    1        -1  = W3_1
                     300M          7    8   F    -1 != W1_2
                     300M          9    4   F    -1 != U0_1
                     300M          6    2   F     1 != U1_3
                     300M          8    6        -1  = V2_3
                     300M          9    5   F    -1  = U0_2
                     300M          7    3         1  = U4_1
                     300M         10    7   F     1  = W1_2
                     300M          7    1   F    -1  = V3_2
 ! Time = 3028.81s, Average fail depth = 18, Memory usage = 1.3 GB
 !               Branches  Non-fixed    W       Branch decision
                     310M          6    8   F     1 != V1_0
                     310M          6    2   F     1 != U3_1
                     310M          8    4   F     1  = U0_2
                     310M          6    6         0 != V1_0
                     310M          8    5   F     0 != W2_3
                     310M         10    3        -1  = W0_3
                     310M          8    7   F     0 != W1_1
                     310M          7    1         1  = U1_1
                     320M          6    8         0 != V2_0
                     320M         10    4         0 != W4_0
                     320M          6    2   F    -1 != W2_2
                     320M          7    5        -1 != U4_1
                     320M          6    6         0 != W1_2
                     320M         10    7   F    -1  = W0_0
                     320M          7    3        -1 != W1_2
                     320M          6    1   F     0  = W3_0
                     330M          5    8   F    -1 != W4_0
                     330M          6    2   F    -1  = U4_3
                     330M          6    6         0 != U4_1
                     330M          9    4   F     0 != V0_2
 ! Time = 3295.06s, Average fail depth = 18, Memory usage = 1.4 GB
 !               Branches  Non-fixed    W       Branch decision
                     330M          8    5         1 != W2_1
                     330M         11    7        -1 != W2_0
                     330M          7    3   F     1 != W1_1
                     330M          7    1   F     1 != U3_3
                     340M          5    8         0 != U4_0
                     340M          6    2   F     1  = U3_0
                     340M          6    6   F     0  = V0_3
                     340M          7    4         0 != W3_1
                     340M          6    5   F    -1  = W4_3
                     340M         10    7   F     1  = U0_2
                     340M          7    3         1 != V3_3
                     340M          7    1        -1 != U3_1
                     350M          5    8         0 != U3_2
                     350M          6    2         0 != V0_3
                     350M          6    6         1  = W2_0
                     350M          7    4   F    -1 != W0_1
                     350M          8    5   F    -1 != V0_1
                     350M         10    3         1  = W0_1
                     350M          9    7   F    -1 != U4_2
                     350M          6    1   F     0  = W1_0
 ! Time = 3534.94s, Average fail depth = 18, Memory usage = 1.5 GB
 !               Branches  Non-fixed    W       Branch decision
                     360M          5    8        -1  = W3_3
                     360M          6    2         1  = W2_3
                     360M          6    6         1 != U3_2
                     360M          8    5         0 != V1_3
                     360M          8    4   F     1  = V3_2
                     360M          7    7         0 != W3_0
                     360M          7    3   F    -1  = W4_1
                     360M          7    1   F    -1  = V0_0
                     370M          5    8   F    -1  = V1_0
                     370M          6    2         1 != W3_2
                     370M          6    6   F    -1 != V0_3
                     370M          7    5         1  = W4_0
                     370M          8    4   F    -1  = W4_1
                     370M          7    7   F    -1  = W1_2
                     370M          7    3        -1 != V1_1
                     370M          7    1         0  = W0_0
                     380M          5    8         1 != U1_2
                     380M          6    2        -1 != W4_2
                     380M          6    6   F    -1 != W3_0
                     380M          8    5   F    -1  = U0_2
 ! Time = 3801.37s, Average fail depth = 18, Memory usage = 1.6 GB
 !               Branches  Non-fixed    W       Branch decision
                     380M          8    4   F    -1  = V4_2
                     380M          9    7         1 != V4_2
                     380M          7    3        -1  = U2_1
                     380M          7    1        -1  = V0_2
                     390M          5    8   F     0 != U2_0
                     390M          6    6   F    -1  = V4_3
                     390M          6    2        -1 != V3_3
                     390M          7    5         0 != U3_2
                     390M          9    4         1 != V0_1
                     390M         13    7   F    -1  = W1_2
                     390M          7    3         1  = V3_2
                     390M          7    1   F    -1  = U2_1
                     400M          5    8            -
                     400M          6    6   F    -1 != W0_0
                     400M          6    2        -1  = V2_2
                     400M          9    5   F     1  = V3_1
                     400M          9    4   F     0  = U4_1
                     400M          7    7        -1 != W4_0
                     400M          7    1         1 != V0_2
                     400M          9    3   F     0  = W0_0
 ! Time = 4044.95s, Average fail depth = 18, Memory usage = 1.7 GB
 !               Branches  Non-fixed    W       Branch decision
                     410M          6    8   F     1 != V3_1
                     410M          6    6         0 != U1_1
                     410M          6    2   F     1 != W4_0
                     410M          8    5         0  = W0_3
                     410M          7    4        -1 != U0_1
                     410M          9    7   F    -1  = V4_2
                     410M          7    1   F     0  = W2_3
                     410M         10    3   F    -1  = V3_2
                     420M          5    8   F    -1 != W2_3
                     420M          6    2         0  = U2_1
                     420M          6    6         0  = U2_3
                     420M          8    5        -1  = W4_0
                     420M          6    7   F    -1 != U3_0
                     420M          9    4        -1 != W1_0
                     420M          7    1   F     0  = V3_3
                     420M         10    3        -1  = W3_3
                     430M          5    8         1 != V1_2
                     430M          6    2   F     0  = V2_0
                     430M          6    6         1 != V3_0
                     430M         10    7         1  = W0_3
 ! Time = 4300.36s, Average fail depth = 18, Memory usage = 1.8 GB
 !               Branches  Non-fixed    W       Branch decision
                     430M          8    5   F    -1  = V1_0
                     430M          9    4   F     0  = U3_1
                     430M          7    1         0  = U3_2
                     430M          7    3   F     0  = V4_2
                     440M          5    8   F     1 != U2_0
                     440M          6    6   F     0  = W2_1
                     440M          6    2         1  = W2_0
                     440M          8    4   F     1  = V3_1
                     440M          8    5   F    -1  = V4_2
                     440M         10    7         1  = V3_0
                     440M          7    1         0 != V1_2
                     440M          7    3        -1 != U3_2
                     450M          5    8            -
                     450M          6    2        -1  = V2_3
                     450M          6    6         1 != W3_2
                     450M          7    4         0 != V1_2
                     450M          7    5   F     1 != W3_1
                     450M         10    7         1  = V0_2
                     450M          7    1        -1  = V0_3
                     450M         12    3        -1 != U2_3
 ! Time = 4554.25s, Average fail depth = 18, Memory usage = 1.9 GB
 !               Branches  Non-fixed    W       Branch decision
                     460M          5    8        -1 != V0_1
                     460M          6    2   F     0  = V2_2
                     460M          6    6   F     1 != U1_0
                     460M          8    5   F     0  = U2_2
                     460M          9    4   F    -1  = W1_1
                     460M         11    7   F    -1  = W1_2
                     460M          7    1         0 != V1_2
                     460M         13    3        -1 != W4_1
                     470M          6    2         0 != W0_2
                     470M          5    8   F     0  = V3_1
                     470M          6    6         0  = V3_0
                     470M          8    4         1  = W1_0
                     470M          7    5   F     0 != V3_2
                     470M         14    7   F     1  = W0_0
                     470M          7    1   F    -1 != V4_3
                     470M          7    3         0 != W4_1
                     480M          6    2         1  = V4_0
                     480M          5    8            -
                     480M          8    6   F     0 != W4_1
                     480M          9    4        -1 != U2_3
 ! Time = 4801.88s, Average fail depth = 18, Memory usage = 2.0 GB
 !               Branches  Non-fixed    W       Branch decision
                     480M          7    5   F    -1 != U1_0
                     480M          7    7   F     0  = W0_0
                     480M          7    1        -1 != U3_2
                     480M          8    3         0 != U1_3
                     490M          6    2         0 != W1_1
                     490M          5    8   F     0  = W4_3
                     490M          7    6   F    -1 != W0_0
                     490M          9    4         0  = V3_2
                     490M          8    5         1 != U0_2
                     490M          8    7        -1  = V3_2
                     490M          7    1   F     0 != W2_2
                     490M          7    3        -1 != W0_2
                     500M          7    2   F     1 != U0_3
                     500M          5    8   F    -1 != V4_0
                     500M          9    6   F     0 != V1_3
                     500M          7    4   F    -1 != V3_1
                     500M          7    5   F     0  = W4_1
                     500M         12    7   F     1  = V3_3
                     500M          7    1   F     1 != V3_2
                     500M          7    3        -1 != U2_0
 ! Time = 5058.27s, Average fail depth = 18, Memory usage = 2.1 GB
 !               Branches  Non-fixed    W       Branch decision
                     510M          6    2         1  = U0_3
                     510M          5    8            -
                     510M          7    6   F    -1  = W3_3
                     510M          8    4         0  = U1_2
                     510M          8    5   F     1 != U4_3
                     510M          9    7        -1 != U3_2
                     510M          7    1         0  = W2_2
                     510M          9    3   F     1 != V0_2
                     520M          7    2        -1 != V3_1
                     520M          6    8            -
                     520M          7    6   F     0 != W4_2
                     520M          8    4         0  = U0_1
                     520M          7    5         1  = U2_0
                     520M          7    1        -1 != W3_1
                     520M         12    3         1 != U1_1
                     520M          9    7         0 != U0_3
                     530M          7    2         1  = U2_2
                     530M          5    8            -
                     530M          7    6   F     1  = W2_0
                     530M          9    4   F    -1  = V0_2
 ! Time = 5302.57s, Average fail depth = 18, Memory usage = 2.2 GB
 !               Branches  Non-fixed    W       Branch decision
                     530M          8    5   F    -1  = W2_3
                     530M          7    1         1  = V1_3
                     530M          7    7   F     0  = V0_2
                     530M         14    3         0 != V2_2
                     540M          8    2   F     1 != V1_0
                     540M          5    8   F     0  = V4_2
                     540M          8    6   F     1  = W3_3
                     540M          7    4         0 != V2_2
                     540M          7    5         1 != U2_2
                     540M          6    1   F    -1 != V0_2
                     540M         12    7        -1 != V1_1
                     540M          8    3         0 != V4_2
                     550M          9    2   F    -1  = W3_3
                     550M          5    8         1 != U4_1
                     550M          8    6         0 != U0_2
                     550M          7    4         0 != U1_2
                     550M          7    5         1 != V4_3
                     550M          7    1        -1 != U1_3
                     550M          7    7   F    -1 != V3_0
                     550M          7    3   F    -1 != V4_2
 ! Time = 5571.23s, Average fail depth = 18, Memory usage = 2.4 GB
 !               Branches  Non-fixed    W       Branch decision
                     560M          7    2   F    -1  = W4_2
                     560M          5    8   F     0 != V0_1
                     560M          8    6   F    -1  = V3_0
                     560M          9    4   F    -1 != V0_2
                     560M          7    5   F    -1 != V1_0
                     560M          7    1   F    -1 != W0_2
                     560M         11    7   F    -1 != V3_2
                     560M          8    3         0  = V1_1
                     570M          7    2        -1 != V0_1
                     570M          5    8   F     1 != W3_2
                     570M          7    6   F     0 != W3_0
                     570M          9    4   F     0  = W1_1
                     570M          7    5         1  = W3_3
                     570M          6    1   F     1 != W2_2
                     570M         12    7        -1 != W2_3
                     570M          8    3   F     0 != U1_1
                     580M          7    2         1 != W0_0
                     580M          5    8        -1  = W0_1
                     580M          6    6        -1  = W2_3
                     580M          9    4   F    -1 != V3_2
 ! Time = 5799.09s, Average fail depth = 18, Memory usage = 2.5 GB
 !               Branches  Non-fixed    W       Branch decision
                     580M          8    5   F     0  = W1_1
                     580M          7    1         1 != V2_3
                     580M         10    7         0 != V3_3
                     580M          7    3   F    -1 != W4_2
                     590M          9    2   F     1  = V4_0
                     590M          5    8   F    -1  = V2_0
                     590M          7    4   F    -1  = W1_0
                     590M          8    6         1  = W2_3
                     590M          9    5   F     1 != U2_1
                     590M          7    1        -1  = V4_2
                     590M         12    3         1  = U2_2
                     590M          8    7        -1 != V3_2
                     600M          7    2         0  = W2_2
                     600M          5    8   F     0 != V2_1
                     600M          8    4        -1 != V3_1
                     600M          7    6   F     1  = W3_2
                     600M          8    5   F     0  = U0_1
                     600M          7    1         1 != W2_1
                     600M          7    7   F    -1  = U3_0
                     610M          9    2   F     1 != W3_0
 ! Time = 6082.62s, Average fail depth = 18, Memory usage = 2.6 GB
 !               Branches  Non-fixed    W       Branch decision
                     600M         11    3         1 != V2_3
                     610M          5    8         1 != V4_1
                     610M          8    4   F     1 != U1_3
                     610M          7    6   F     1 != U0_2
                     610M          8    5         0  = W0_2
                     610M          7    1   F     0  = U3_3
                     610M         12    7   F    -1 != V3_1
                     620M          8    2        -1  = W0_2
                     610M         11    3   F     0  = U4_0
                     620M          5    8   F     0  = V3_3
                     620M          7    4         0  = U0_1
                     620M          7    6        -1 != V4_2
                     620M          9    5   F    -1 != V0_2
                     620M          7    1   F     1 != U1_1
                     620M          8    7         1  = V2_2
                     630M          8    2   F     0 != W4_1
                     620M          7    3   F    -1 != U4_0
                     630M          5    8   F        -
                     630M          6    4         0 != V2_3
                     630M          7    6         0 != V0_2
 ! Time = 6298.04s, Average fail depth = 18, Memory usage = 2.7 GB
 !               Branches  Non-fixed    W       Branch decision
                     630M          7    5   F    -1 != U1_1
                     630M          7    1   F     1 != V2_2
                     630M          7    7   F    -1 != V2_2
                     640M          9    2         1  = V0_2
                     630M          7    3         0  = W0_1
                     640M          8    4         0 != V0_2
                     640M          5    8   F    -1  = W4_3
                     640M          8    6         0  = W2_3
                     640M         10    5   F    -1 != V2_0
                     640M          7    1   F     0 != U4_3
                     640M         10    7   F    -1  = W4_2
                     640M         14    3   F    -1 != V3_2
                     650M          9    2         0 != W4_1
                     650M          6    4   F     0 != U2_0
                     650M          5    8   F        -
                     650M          7    6         1  = U0_3
                     650M          7    5   F     1 != V1_0
                     650M          7    1   F     0  = W2_0
                     650M         12    7         1  = U4_0
                     650M          6    3   F     0  = U1_0
 ! Time = 6576.33s, Average fail depth = 18, Memory usage = 2.8 GB
 !               Branches  Non-fixed    W       Branch decision
                     660M          7    2         0 != V3_1
                     660M          7    4   F     0 != V1_2
                     660M          6    8        -1  = U0_2
                     660M          7    6         1  = W2_1
                     660M          8    5   F     0  = W1_0
                     660M          7    1   F     0  = U0_3
                     660M          7    3         1 != W0_1
                     660M          8    7        -1 != V4_2
                     670M          8    2         0  = V0_1
                     670M          7    4         0 != V2_3
                     670M          5    8   F    -1  = U2_2
                     670M          8    6         0  = U3_1
                     670M          7    5   F     1 != W3_1
                     670M          7    1   F     0  = V0_2
                     670M          7    3        -1 != W2_1
                     670M         12    7         1 != W0_2
                     680M          8    2         0 != U2_3
                     680M          8    4   F    -1  = V0_2
                     680M          5    8         1  = V1_0
                     680M          8    6         0  = U2_1
 ! Time = 6801.04s, Average fail depth = 18, Memory usage = 2.9 GB
 !               Branches  Non-fixed    W       Branch decision
                     680M          7    1   F     0 != W0_3
                     680M          9    5   F     1  = U0_1
                     680M         12    3   F     1  = V4_1
                     680M          7    7   F     1  = W1_2
                     690M          8    2   F     1  = U1_0
                     690M          7    4        -1 != U2_1
                     690M          5    8   F    -1  = V0_1
                     690M          7    6   F     0 != V0_0
                     690M          7    1   F    -1 != V2_3
                     690M          7    5        -1  = U0_1
                     690M         13    3   F    -1 != U3_3
                     700M          8    4   F     0  = V4_3
                     700M          9    2        -1 != W4_1
                     690M          9    7   F     0  = U0_3
                     700M          5    8   F     0  = V2_1
                     700M          7    6   F     1  = V2_3
                     700M          7    1   F     1 != U1_0
                     700M          8    5        -1  = V4_2
                     700M         16    3   F     0 != V0_1
                     710M          7    2         1  = W1_2
 ! Time = 7087.21s, Average fail depth = 18, Memory usage = 3.0 GB
 !               Branches  Non-fixed    W       Branch decision
                     710M          7    4         0 != U0_2
                     700M         15    7        -1 != V1_1
                     710M          6    6         0  = U1_3
                     710M          5    8   F     0 != V2_2
submitit WARNING (2023-04-30 15:42:42,330) - Bypassing signal SIGCONT
submitit INFO (2023-04-30 15:42:42,338) - Job has timed out. Ran 119 minutes out of requested 121 minutes.
submitit WARNING (2023-04-30 15:42:42,338) - Caught signal SIGUSR2 on cpunode2: this job is timed-out.
submitit INFO (2023-04-30 15:42:42,338) - Not checkpointing nor requeuing since I am a slave (procid=3).
                     710M          7    1   F    -1 != U0_2
                     710M          8    5        -1  = V0_0
                     710M         13    3   F     0  = U0_0
                     710M          8    7         1 != U3_1
                     720M          8    2   F     1 != W1_2
                     720M          9    4        -1  = U0_1
                     720M          8    6   F     1  = W3_3
                     720M          5    8         0  = W2_0
 ! ----------------------------------------------------------------------------
 ! Search terminated by limit, no solution found.
 ! ----------------------------------------------------------------------------
 ! Number of branches     : 5736573297
 ! Number of fails        : 2822493763
 ! Total memory usage     : 3.2 GB (3.2 GB CP Optimizer + 0.0 GB Concert)
 ! Time spent in solve    : 7200.05s (7200.05s engine + 0.00s extraction)
 ! Search speed (br. / s) : 796741.9
 ! ----------------------------------------------------------------------------
Unknown
Saving stats to: /h/30/pashootan/Matrix-Mult-CP/logs/2x2x2_5_Apr30_13:43:39/27527_3_stats.csv
submitit INFO (2023-04-30 15:43:44,043) - Job completed successfully
